Problem
 AFIRO
Minimize
 COST:  - 2/5 X02 - 8/25 X14 - 3/5 X23 - 12/25 X36 + 10 X39
Subject To
 R09:  -  X01 +  X02 +  X03 = 0
 R10:  - 53/50 X01 +  X04 = 0
 X05:   X01 <= 80
 X21:  -  X02 + 7/5 X14 <= 0
 R12:  -  X06 -  X07 -  X08 -  X09 +  X14 +  X15 = 0
 R13:  - 53/50 X06 - 53/50 X07 - 24/25 X08 - 43/50 X09 +  X16 = 0
 X17:   X06 -  X10 <= 80
 X18:   X07 -  X11 <= 0
 X19:   X08 -  X12 <= 0
 X20:   X09 -  X13 <= 0
 R19:  -  X22 +  X23 +  X24 +  X25 = 0
 R20:  - 43/100 X22 +  X26 = 0
 X27:   X22 <= 500
 X44:  -  X23 + 7/5 X36 <= 0
 R22:  - 43/100 X28 - 43/100 X29 - 39/100 X30 - 37/100 X31 +  X38 = 0
 R23:   X28 +  X29 +  X30 +  X31 -  X36 +  X37 +  X39 = 44
 X40:   X28 -  X32 <= 500
 X41:   X29 -  X33 <= 0
 X42:   X30 -  X34 <= 0
 X43:   X31 -  X35 <= 0
 X45:  591/250 X10 + 1193/500 X11 + 301/125 X12 + 2429/1000 X13 -  X25 + 2191/1000 X32 + 2219/1000 X33 + 2249/1000 X34 + 2279/1000 X35 <= 0
 X46:  -  X03 + 109/1000 X22 <= 0
 X47:  -  X15 + 109/1000 X28 + 27/250 X29 + 27/250 X30 + 107/1000 X31 <= 0
 X48:  301/1000 X01 -  X24 <= 0
 X49:  301/1000 X06 + 313/1000 X07 + 313/1000 X08 + 163/500 X09 -  X37 <= 0
 X50:   X04 +  X26 <= 310
 X51:   X16 +  X38 <= 300
End
